;symbolic execution tree
(push)
(assert (le x0 java.net.InetAddress))
(check-sat)
(push)
(assert (le x0 java.net.InetAddress))
(check-sat)
(pop)
(push)
(assert (not (le x0 java.net.InetAddress)))
(check-sat)
(pop)
(push)
(assert (le x0 java.net.InetAddress))
(check-sat)
(push)
(assert (le x0 java.net.InetAddress))
(check-sat)
(push)
(assert (le x0 java.net.InetAddress))
(check-sat)
(pop)
(push)
(assert (not (le x0 java.net.InetAddress)))
(check-sat)
(pop)
(push)
(assert (le x0 java.net.InetAddress))
(check-sat)
(pop)
(push)
(assert (not (le x0 java.net.InetAddress)))
(check-sat)
(pop)
(pop)
(push)
(assert (not (le x0 java.net.InetAddress)))
(check-sat)
(pop)
(pop)
(push)
(assert (not (le x0 java.net.InetAddress)))
(check-sat)
(pop)
(push)
(assert (le x0 java.net.InetAddress))
(check-sat)
(push)
(assert (le x0 java.net.InetAddress))
(check-sat)
(pop)
(push)
(assert (not (le x0 java.net.InetAddress)))
(check-sat)
(pop)
(push)
(assert (le x0 java.net.InetAddress))
(check-sat)
(pop)
(push)
(assert (not (le x0 java.net.InetAddress)))
(check-sat)
(pop)
(pop)
(push)
(assert (not (le x0 java.net.InetAddress)))
(check-sat)
(pop)
(push)
(assert (le x0 java.net.InetAddress))
(check-sat)
(push)
(assert (le x0 java.net.InetAddress))
(check-sat)
(pop)
(push)
(assert (not (le x0 java.net.InetAddress)))
(check-sat)
(pop)
(push)
(assert (le x0 java.net.InetAddress))
(check-sat)
(push)
(assert (le x0 java.net.InetAddress))
(check-sat)
(pop)
(push)
(assert (not (le x0 java.net.InetAddress)))
(check-sat)
(pop)
(push)
(assert (le x0 java.net.InetAddress))
(check-sat)
(push)
(assert (le x0 java.net.InetAddress))
(check-sat)
(pop)
(push)
(assert (not (le x0 java.net.InetAddress)))
(check-sat)
(pop)
(pop)
(push)
(assert (not (le x0 java.net.InetAddress)))
(check-sat)
(pop)
(push)
(assert (le x0 java.net.InetAddress))
(check-sat)
(push)
(assert (le x0 java.net.InetAddress))
(check-sat)
(pop)
(push)
(assert (not (le x0 java.net.InetAddress)))
(check-sat)
(pop)
(pop)
(push)
(assert (not (le x0 java.net.InetAddress)))
(check-sat)
(pop)
(pop)
(push)
(assert (not (le x0 java.net.InetAddress)))
(check-sat)
(pop)
(pop)
(push)
(assert (not (le x0 java.net.InetAddress)))
(check-sat)
(pop)
(push)
(assert (le x0 java.net.InetAddress))
(check-sat)
(pop)
(push)
(assert (not (le x0 java.net.InetAddress)))
(check-sat)
(pop)
(push)
(assert (le x0 java.net.InetAddress))
(check-sat)
(push)
(assert (le x0 java.net.InetAddress))
(check-sat)
(pop)
(push)
(assert (not (le x0 java.net.InetAddress)))
(check-sat)
(pop)
(pop)
(push)
(assert (not (le x0 java.net.InetAddress)))
(check-sat)
(pop)
(push)
(assert (le x0 java.net.InetAddress))
(check-sat)
(pop)
(push)
(assert (not (le x0 java.net.InetAddress)))
(check-sat)
(pop)
(push)
(assert (le x0 java.net.InetAddress))
(check-sat)
(pop)
(push)
(assert (not (le x0 java.net.InetAddress)))
(check-sat)
(pop)
(push)
(assert (le x0 java.net.InetAddress))
(check-sat)
(push)
(assert (le x0 java.net.InetAddress))
(check-sat)
(pop)
(push)
(assert (not (le x0 java.net.InetAddress)))
(check-sat)
(pop)
(push)
(assert (le x0 java.net.InetAddress))
(check-sat)
(pop)
(push)
(assert (not (le x0 java.net.InetAddress)))
(check-sat)
(pop)
(pop)
(push)
(assert (not (le x0 java.net.InetAddress)))
(check-sat)
(pop)
(push)
(assert (le x0 java.net.InetAddress))
(check-sat)
(push)
(assert (le x0 java.net.InetAddress))
(check-sat)
(push)
(assert (le x0 java.net.InetAddress))
(check-sat)
(pop)
(push)
(assert (not (le x0 java.net.InetAddress)))
(check-sat)
(pop)
(push)
(assert (le x0 java.net.InetAddress))
(check-sat)
(pop)
(push)
(assert (not (le x0 java.net.InetAddress)))
(check-sat)
(pop)
(push)
(assert (le x0 java.net.InetAddress))
(check-sat)
(pop)
(push)
(assert (not (le x0 java.net.InetAddress)))
(check-sat)
(pop)
(pop)
(push)
(assert (not (le x0 java.net.InetAddress)))
(check-sat)
(pop)
(push)
(assert (le x0 java.net.InetAddress))
(check-sat)
(push)
(assert (le x0 java.net.InetAddress))
(check-sat)
(pop)
(push)
(assert (not (le x0 java.net.InetAddress)))
(check-sat)
(pop)
(pop)
(push)
(assert (not (le x0 java.net.InetAddress)))
(check-sat)
(pop)
(push)
(assert (le x0 java.net.InetAddress))
(check-sat)
(pop)
(push)
(assert (not (le x0 java.net.InetAddress)))
(check-sat)
(pop)
(pop)
(push)
(assert (not (le x0 java.net.InetAddress)))
(check-sat)
(pop)
(push)
(assert (le x0 java.net.InetAddress))
(check-sat)
(push)
(assert (le x0 java.net.InetAddress))
(check-sat)
(pop)
(push)
(assert (not (le x0 java.net.InetAddress)))
(check-sat)
(pop)
(pop)
(push)
(assert (not (le x0 java.net.InetAddress)))
(check-sat)
(pop)
(push)
(assert (le x0 java.net.InetAddress))
(check-sat)
(push)
(assert (le x0 java.net.InetAddress))
(check-sat)
(pop)
(push)
(assert (not (le x0 java.net.InetAddress)))
(check-sat)
(pop)
(pop)
(push)
(assert (not (le x0 java.net.InetAddress)))
(check-sat)
(pop)
(push)
(assert (le x0 java.net.InetAddress))
(check-sat)
(push)
(assert (le x0 java.net.InetAddress))
(check-sat)
(push)
(assert (le x0 java.net.InetAddress))
(check-sat)
(pop)
(push)
(assert (not (le x0 java.net.InetAddress)))
(check-sat)
(pop)
(pop)
(push)
(assert (not (le x0 java.net.InetAddress)))
(check-sat)
(pop)
(push)
(assert (le x0 java.net.InetAddress))
(check-sat)
(pop)
(push)
(assert (not (le x0 java.net.InetAddress)))
(check-sat)
(pop)
(push)
(assert (le x0 java.net.InetAddress))
(check-sat)
(pop)
(push)
(assert (not (le x0 java.net.InetAddress)))
(check-sat)
(pop)
(pop)
(push)
(assert (not (le x0 java.net.InetAddress)))
(check-sat)
(pop)
(push)
(assert (le x0 java.net.InetAddress))
(check-sat)
(push)
(assert (le x0 java.net.InetAddress))
(check-sat)
(pop)
(push)
(assert (not (le x0 java.net.InetAddress)))
(check-sat)
(pop)
(pop)
(push)
(assert (not (le x0 java.net.InetAddress)))
(check-sat)
(pop)
(push)
(assert (le x0 java.net.InetAddress))
(check-sat)
(pop)
(push)
(assert (not (le x0 java.net.InetAddress)))
(check-sat)
(pop)
(push)
(assert (le x0 java.net.InetAddress))
(check-sat)
(pop)
(push)
(assert (not (le x0 java.net.InetAddress)))
(check-sat)
(pop)
(push)
(assert (le x0 java.net.InetAddress))
(check-sat)
(pop)
(push)
(assert (not (le x0 java.net.InetAddress)))
(check-sat)
(pop)
(push)
(assert (le x0 java.net.InetAddress))
(check-sat)
(push)
(assert (le x0 java.net.InetAddress))
(check-sat)
(pop)
(push)
(assert (not (le x0 java.net.InetAddress)))
(check-sat)
(pop)
(pop)
(push)
(assert (not (le x0 java.net.InetAddress)))
(check-sat)
(pop)
(push)
(assert (le x0 java.net.InetAddress))
(check-sat)
(push)
(assert (le x0 java.net.InetAddress))
(check-sat)
(pop)
(push)
(assert (not (le x0 java.net.InetAddress)))
(check-sat)
(pop)
(pop)
(push)
(assert (not (le x0 java.net.InetAddress)))
(check-sat)
(pop)
(push)
(assert (le x0 java.net.InetAddress))
(check-sat)
(push)
(assert (le x0 java.net.InetAddress))
(check-sat)
(push)
(assert (le x0 java.net.InetAddress))
(check-sat)
(pop)
(push)
(assert (not (le x0 java.net.InetAddress)))
(check-sat)
(pop)
(pop)
(push)
(assert (not (le x0 java.net.InetAddress)))
(check-sat)
(pop)
(pop)
(push)
(assert (not (le x0 java.net.InetAddress)))
(check-sat)
(pop)
(push)
(assert (le x0 java.net.InetAddress))
(check-sat)
(pop)
(push)
(assert (not (le x0 java.net.InetAddress)))
(check-sat)
(pop)
(push)
(assert (le x0 java.net.InetAddress))
(check-sat)
(push)
(assert (le x0 java.net.InetAddress))
(check-sat)
(pop)
(push)
(assert (not (le x0 java.net.InetAddress)))
(check-sat)
(pop)
(push)
(assert (le x0 java.net.InetAddress))
(check-sat)
(push)
(assert (le x0 java.net.InetAddress))
(check-sat)
(pop)
(push)
(assert (not (le x0 java.net.InetAddress)))
(check-sat)
(pop)
(pop)
(push)
(assert (not (le x0 java.net.InetAddress)))
(check-sat)
(pop)
(pop)
(push)
(assert (not (le x0 java.net.InetAddress)))
(check-sat)
(pop)
(push)
(assert (le x0 java.net.InetAddress))
(check-sat)
(push)
(assert (le x0 java.net.InetAddress))
(check-sat)
(push)
(assert (le x0 java.net.InetAddress))
(check-sat)
(pop)
(push)
(assert (not (le x0 java.net.InetAddress)))
(check-sat)
(pop)
(pop)
(push)
(assert (not (le x0 java.net.InetAddress)))
(check-sat)
(pop)
(push)
(assert (le x0 java.net.InetAddress))
(check-sat)
(push)
(assert (le x0 java.net.InetAddress))
(check-sat)
(pop)
(push)
(assert (not (le x0 java.net.InetAddress)))
(check-sat)
(pop)
(pop)
(push)
(assert (not (le x0 java.net.InetAddress)))
(check-sat)
(pop)
(push)
(assert (le x0 java.net.InetAddress))
(check-sat)
(push)
(assert (le x0 java.net.InetAddress))
(check-sat)
(pop)
(push)
(assert (not (le x0 java.net.InetAddress)))
(check-sat)
(pop)
(push)
(assert (le x0 java.net.InetAddress))
(check-sat)
(pop)
(push)
(assert (not (le x0 java.net.InetAddress)))
(check-sat)
(pop)
(push)
(assert (le x0 java.net.InetAddress))
(check-sat)
(pop)
(push)
(assert (not (le x0 java.net.InetAddress)))
(check-sat)
(pop)
(push)
(assert (le x0 java.net.InetAddress))
(check-sat)
(pop)
(push)
(assert (not (le x0 java.net.InetAddress)))
(check-sat)
(pop)
(push)
(assert (le x0 java.net.InetAddress))
(check-sat)
(pop)
(push)
(assert (not (le x0 java.net.InetAddress)))
(check-sat)
(pop)
(pop)
(push)
(assert (not (le x0 java.net.InetAddress)))
(check-sat)
(pop)
(pop)
(push)
(assert (not (le x0 java.net.InetAddress)))
(check-sat)
(pop)
(push)
(assert (le x0 java.net.InetAddress))
(check-sat)
(push)
(assert (le x0 java.net.InetAddress))
(check-sat)
(pop)
(push)
(assert (not (le x0 java.net.InetAddress)))
(check-sat)
(pop)
(pop)
(push)
(assert (not (le x0 java.net.InetAddress)))
(check-sat)
(pop)
(push)
(assert (le x0 java.net.InetAddress))
(check-sat)
(push)
(assert (le x0 java.net.InetAddress))
(check-sat)
(push)
(assert (le x0 java.net.InetAddress))
(check-sat)
(pop)
(push)
(assert (not (le x0 java.net.InetAddress)))
(check-sat)
(pop)
(push)
(assert (le x0 java.net.InetAddress))
(check-sat)
(push)
(assert (le x0 java.net.InetAddress))
(check-sat)
(pop)
(push)
(assert (not (le x0 java.net.InetAddress)))
(check-sat)
(pop)
(pop)
(push)
(assert (not (le x0 java.net.InetAddress)))
(check-sat)
(pop)
(push)
(assert (le x0 java.net.InetAddress))
(check-sat)
(pop)
(push)
(assert (not (le x0 java.net.InetAddress)))
(check-sat)
(pop)
(pop)
(push)
(assert (not (le x0 java.net.InetAddress)))
(check-sat)
(pop)
(pop)
(push)
(assert (not (le x0 java.net.InetAddress)))
(check-sat)
(pop)
(push)
(assert (le x0 java.net.InetAddress))
(check-sat)
(pop)
(push)
(assert (not (le x0 java.net.InetAddress)))
(check-sat)
(pop)
(pop)
(push)
(assert (not (le x0 java.net.InetAddress)))
(check-sat)
(push)
(assert (le x0 java.net.InetAddress))
(check-sat)
(pop)
(push)
(assert (not (le x0 java.net.InetAddress)))
(check-sat)
(pop)
(pop)
